p cnf 722 1738
1 0
17 18 0
-17 -18 0
19 20 0
-19 -20 0
-16 17 0
-16 19 0
16 -17 -19 0
21 22 0
-21 -22 0
-15 16 0
-15 21 0
15 -16 -21 0
-24 16 0
24 -16 0
25 -22 0
-25 22 0
-23 24 0
-23 25 0
23 -24 -25 0
14 -15 0
14 -23 0
-14 15 23 0
28 18 0
-28 -18 0
29 -20 0
-29 20 0
-27 28 0
-27 29 0
27 -28 -29 0
30 22 0
-30 -22 0
-26 27 0
-26 30 0
26 -27 -30 0
13 -14 0
13 -26 0
-13 14 26 0
33 -18 0
-33 18 0
34 20 0
-34 -20 0
-32 33 0
-32 34 0
32 -33 -34 0
35 22 0
-35 -22 0
-31 32 0
-31 35 0
31 -32 -35 0
12 -13 0
12 -31 0
-12 13 31 0
-37 27 0
37 -27 0
38 -22 0
-38 22 0
-36 37 0
-36 38 0
36 -37 -38 0
-11 12 0
-11 36 0
11 -12 -36 0
46 47 0
-46 -47 0
48 49 0
-48 -49 0
-45 46 0
-45 48 0
45 -46 -48 0
50 51 0
-50 -51 0
-44 45 0
-44 50 0
44 -45 -50 0
-53 45 0
53 -45 0
54 -51 0
-54 51 0
-52 53 0
-52 54 0
52 -53 -54 0
43 -44 0
43 -52 0
-43 44 52 0
57 47 0
-57 -47 0
58 -49 0
-58 49 0
-56 57 0
-56 58 0
56 -57 -58 0
59 51 0
-59 -51 0
-55 56 0
-55 59 0
55 -56 -59 0
42 -43 0
42 -55 0
-42 43 55 0
62 -47 0
-62 47 0
63 49 0
-63 -49 0
-61 62 0
-61 63 0
61 -62 -63 0
64 51 0
-64 -51 0
-60 61 0
-60 64 0
60 -61 -64 0
41 -42 0
41 -60 0
-41 42 60 0
-66 56 0
66 -56 0
67 -51 0
-67 51 0
-65 66 0
-65 67 0
65 -66 -67 0
-40 41 0
-40 65 0
40 -41 -65 0
-68 36 0
68 -36 0
-39 40 0
-39 68 0
39 -40 -68 0
10 -11 0
10 -39 0
-10 11 39 0
76 77 0
-76 -77 0
78 79 0
-78 -79 0
-75 76 0
-75 78 0
75 -76 -78 0
80 81 0
-80 -81 0
-74 75 0
-74 80 0
74 -75 -80 0
-83 75 0
83 -75 0
84 -81 0
-84 81 0
-82 83 0
-82 84 0
82 -83 -84 0
73 -74 0
73 -82 0
-73 74 82 0
87 77 0
-87 -77 0
88 -79 0
-88 79 0
-86 87 0
-86 88 0
86 -87 -88 0
89 81 0
-89 -81 0
-85 86 0
-85 89 0
85 -86 -89 0
72 -73 0
72 -85 0
-72 73 85 0
92 -77 0
-92 77 0
93 79 0
-93 -79 0
-91 92 0
-91 93 0
91 -92 -93 0
94 81 0
-94 -81 0
-90 91 0
-90 94 0
90 -91 -94 0
71 -72 0
71 -90 0
-71 72 90 0
-96 86 0
96 -86 0
97 -81 0
-97 81 0
-95 96 0
-95 97 0
95 -96 -97 0
-70 71 0
-70 95 0
70 -71 -95 0
-99 36 0
99 -36 0
-100 65 0
100 -65 0
-98 99 0
-98 100 0
98 -99 -100 0
-69 70 0
-69 98 0
69 -70 -98 0
9 -10 0
9 -69 0
-9 10 69 0
108 109 0
-108 -109 0
110 111 0
-110 -111 0
-107 108 0
-107 110 0
107 -108 -110 0
112 113 0
-112 -113 0
-106 107 0
-106 112 0
106 -107 -112 0
-115 107 0
115 -107 0
116 -113 0
-116 113 0
-114 115 0
-114 116 0
114 -115 -116 0
105 -106 0
105 -114 0
-105 106 114 0
119 109 0
-119 -109 0
120 -111 0
-120 111 0
-118 119 0
-118 120 0
118 -119 -120 0
121 113 0
-121 -113 0
-117 118 0
-117 121 0
117 -118 -121 0
104 -105 0
104 -117 0
-104 105 117 0
124 -109 0
-124 109 0
125 111 0
-125 -111 0
-123 124 0
-123 125 0
123 -124 -125 0
126 113 0
-126 -113 0
-122 123 0
-122 126 0
122 -123 -126 0
103 -104 0
103 -122 0
-103 104 122 0
-128 118 0
128 -118 0
129 -113 0
-129 113 0
-127 128 0
-127 129 0
127 -128 -129 0
-102 103 0
-102 127 0
102 -103 -127 0
-131 98 0
131 -98 0
-132 95 0
132 -95 0
-130 131 0
-130 132 0
130 -131 -132 0
-101 102 0
-101 130 0
101 -102 -130 0
8 -9 0
8 -101 0
-8 9 101 0
140 141 0
-140 -141 0
142 143 0
-142 -143 0
-139 140 0
-139 142 0
139 -140 -142 0
144 145 0
-144 -145 0
-138 139 0
-138 144 0
138 -139 -144 0
-147 139 0
147 -139 0
148 -145 0
-148 145 0
-146 147 0
-146 148 0
146 -147 -148 0
137 -138 0
137 -146 0
-137 138 146 0
151 141 0
-151 -141 0
152 -143 0
-152 143 0
-150 151 0
-150 152 0
150 -151 -152 0
153 145 0
-153 -145 0
-149 150 0
-149 153 0
149 -150 -153 0
136 -137 0
136 -149 0
-136 137 149 0
156 -141 0
-156 141 0
157 143 0
-157 -143 0
-155 156 0
-155 157 0
155 -156 -157 0
158 145 0
-158 -145 0
-154 155 0
-154 158 0
154 -155 -158 0
135 -136 0
135 -154 0
-135 136 154 0
-160 150 0
160 -150 0
161 -145 0
-161 145 0
-159 160 0
-159 161 0
159 -160 -161 0
-134 135 0
-134 159 0
134 -135 -159 0
-163 130 0
163 -130 0
-164 127 0
164 -127 0
-162 163 0
-162 164 0
162 -163 -164 0
-133 134 0
-133 162 0
133 -134 -162 0
7 -8 0
7 -133 0
-7 8 133 0
172 173 0
-172 -173 0
174 175 0
-174 -175 0
-171 172 0
-171 174 0
171 -172 -174 0
176 177 0
-176 -177 0
-170 171 0
-170 176 0
170 -171 -176 0
-179 171 0
179 -171 0
180 -177 0
-180 177 0
-178 179 0
-178 180 0
178 -179 -180 0
169 -170 0
169 -178 0
-169 170 178 0
183 173 0
-183 -173 0
184 -175 0
-184 175 0
-182 183 0
-182 184 0
182 -183 -184 0
185 177 0
-185 -177 0
-181 182 0
-181 185 0
181 -182 -185 0
168 -169 0
168 -181 0
-168 169 181 0
188 -173 0
-188 173 0
189 175 0
-189 -175 0
-187 188 0
-187 189 0
187 -188 -189 0
190 177 0
-190 -177 0
-186 187 0
-186 190 0
186 -187 -190 0
167 -168 0
167 -186 0
-167 168 186 0
-192 182 0
192 -182 0
193 -177 0
-193 177 0
-191 192 0
-191 193 0
191 -192 -193 0
-166 167 0
-166 191 0
166 -167 -191 0
-195 162 0
195 -162 0
-196 159 0
196 -159 0
-194 195 0
-194 196 0
194 -195 -196 0
-165 166 0
-165 194 0
165 -166 -194 0
6 -7 0
6 -165 0
-6 7 165 0
204 205 0
-204 -205 0
206 207 0
-206 -207 0
-203 204 0
-203 206 0
203 -204 -206 0
208 209 0
-208 -209 0
-202 203 0
-202 208 0
202 -203 -208 0
-211 203 0
211 -203 0
212 -209 0
-212 209 0
-210 211 0
-210 212 0
210 -211 -212 0
201 -202 0
201 -210 0
-201 202 210 0
215 205 0
-215 -205 0
216 -207 0
-216 207 0
-214 215 0
-214 216 0
214 -215 -216 0
217 209 0
-217 -209 0
-213 214 0
-213 217 0
213 -214 -217 0
200 -201 0
200 -213 0
-200 201 213 0
220 -205 0
-220 205 0
221 207 0
-221 -207 0
-219 220 0
-219 221 0
219 -220 -221 0
222 209 0
-222 -209 0
-218 219 0
-218 222 0
218 -219 -222 0
199 -200 0
199 -218 0
-199 200 218 0
-224 214 0
224 -214 0
225 -209 0
-225 209 0
-223 224 0
-223 225 0
223 -224 -225 0
-198 199 0
-198 223 0
198 -199 -223 0
-227 194 0
227 -194 0
-228 191 0
228 -191 0
-226 227 0
-226 228 0
226 -227 -228 0
-197 198 0
-197 226 0
197 -198 -226 0
5 -6 0
5 -197 0
-5 6 197 0
236 237 0
-236 -237 0
238 239 0
-238 -239 0
-235 236 0
-235 238 0
235 -236 -238 0
240 241 0
-240 -241 0
-234 235 0
-234 240 0
234 -235 -240 0
-243 235 0
243 -235 0
244 -241 0
-244 241 0
-242 243 0
-242 244 0
242 -243 -244 0
233 -234 0
233 -242 0
-233 234 242 0
247 237 0
-247 -237 0
248 -239 0
-248 239 0
-246 247 0
-246 248 0
246 -247 -248 0
249 241 0
-249 -241 0
-245 246 0
-245 249 0
245 -246 -249 0
232 -233 0
232 -245 0
-232 233 245 0
252 -237 0
-252 237 0
253 239 0
-253 -239 0
-251 252 0
-251 253 0
251 -252 -253 0
254 241 0
-254 -241 0
-250 251 0
-250 254 0
250 -251 -254 0
231 -232 0
231 -250 0
-231 232 250 0
-256 246 0
256 -246 0
257 -241 0
-257 241 0
-255 256 0
-255 257 0
255 -256 -257 0
-230 231 0
-230 255 0
230 -231 -255 0
-259 226 0
259 -226 0
-260 223 0
260 -223 0
-258 259 0
-258 260 0
258 -259 -260 0
-229 230 0
-229 258 0
229 -230 -258 0
4 -5 0
4 -229 0
-4 5 229 0
268 269 0
-268 -269 0
270 271 0
-270 -271 0
-267 268 0
-267 270 0
267 -268 -270 0
272 273 0
-272 -273 0
-266 267 0
-266 272 0
266 -267 -272 0
-275 267 0
275 -267 0
276 -273 0
-276 273 0
-274 275 0
-274 276 0
274 -275 -276 0
265 -266 0
265 -274 0
-265 266 274 0
279 269 0
-279 -269 0
280 -271 0
-280 271 0
-278 279 0
-278 280 0
278 -279 -280 0
281 273 0
-281 -273 0
-277 278 0
-277 281 0
277 -278 -281 0
264 -265 0
264 -277 0
-264 265 277 0
284 -269 0
-284 269 0
285 271 0
-285 -271 0
-283 284 0
-283 285 0
283 -284 -285 0
286 273 0
-286 -273 0
-282 283 0
-282 286 0
282 -283 -286 0
263 -264 0
263 -282 0
-263 264 282 0
-288 278 0
288 -278 0
289 -273 0
-289 273 0
-287 288 0
-287 289 0
287 -288 -289 0
-262 263 0
-262 287 0
262 -263 -287 0
-291 258 0
291 -258 0
-292 255 0
292 -255 0
-290 291 0
-290 292 0
290 -291 -292 0
-261 262 0
-261 290 0
261 -262 -290 0
3 -4 0
3 -261 0
-3 4 261 0
-304 290 0
304 -290 0
-305 287 0
305 -287 0
-303 304 0
-303 305 0
303 -304 -305 0
-306 3 0
306 -3 0
302 -303 0
302 -306 0
-302 303 306 0
-313 282 0
313 -282 0
-314 23 0
314 -23 0
-312 313 0
-312 314 0
312 -313 -314 0
-316 287 0
316 -287 0
-317 31 0
317 -31 0
-315 316 0
-315 317 0
315 -316 -317 0
311 -312 0
311 -315 0
-311 312 315 0
-319 277 0
319 -277 0
-320 36 0
320 -36 0
-318 319 0
-318 320 0
318 -319 -320 0
310 -311 0
310 -318 0
-310 311 318 0
-322 274 0
322 -274 0
-323 26 0
323 -26 0
-321 322 0
-321 323 0
321 -322 -323 0
309 -310 0
309 -321 0
-309 310 321 0
-325 277 0
325 -277 0
-326 31 0
326 -31 0
-324 325 0
-324 326 0
324 -325 -326 0
308 -309 0
308 -324 0
-308 309 324 0
-328 266 0
328 -266 0
-329 23 0
329 -23 0
-327 328 0
-327 329 0
327 -328 -329 0
307 -308 0
307 -327 0
-307 308 327 0
-301 302 0
-301 307 0
301 -302 -307 0
-331 302 0
331 -302 0
-338 282 0
338 -282 0
-339 52 0
339 -52 0
-337 338 0
-337 339 0
337 -338 -339 0
-341 287 0
341 -287 0
-342 60 0
342 -60 0
-340 341 0
-340 342 0
340 -341 -342 0
336 -337 0
336 -340 0
-336 337 340 0
-344 277 0
344 -277 0
-345 65 0
345 -65 0
-343 344 0
-343 345 0
343 -344 -345 0
335 -336 0
335 -343 0
-335 336 343 0
-347 274 0
347 -274 0
-348 55 0
348 -55 0
-346 347 0
-346 348 0
346 -347 -348 0
334 -335 0
334 -346 0
-334 335 346 0
-350 277 0
350 -277 0
-351 60 0
351 -60 0
-349 350 0
-349 351 0
349 -350 -351 0
333 -334 0
333 -349 0
-333 334 349 0
-353 266 0
353 -266 0
-354 52 0
354 -52 0
-352 353 0
-352 354 0
352 -353 -354 0
332 -333 0
332 -352 0
-332 333 352 0
-330 331 0
-330 332 0
330 -331 -332 0
300 -301 0
300 -330 0
-300 301 330 0
-356 302 0
356 -302 0
-363 282 0
363 -282 0
-364 82 0
364 -82 0
-362 363 0
-362 364 0
362 -363 -364 0
-366 287 0
366 -287 0
-367 90 0
367 -90 0
-365 366 0
-365 367 0
365 -366 -367 0
361 -362 0
361 -365 0
-361 362 365 0
-369 277 0
369 -277 0
-370 95 0
370 -95 0
-368 369 0
-368 370 0
368 -369 -370 0
360 -361 0
360 -368 0
-360 361 368 0
-372 274 0
372 -274 0
-373 85 0
373 -85 0
-371 372 0
-371 373 0
371 -372 -373 0
359 -360 0
359 -371 0
-359 360 371 0
-375 277 0
375 -277 0
-376 90 0
376 -90 0
-374 375 0
-374 376 0
374 -375 -376 0
358 -359 0
358 -374 0
-358 359 374 0
-378 266 0
378 -266 0
-379 82 0
379 -82 0
-377 378 0
-377 379 0
377 -378 -379 0
357 -358 0
357 -377 0
-357 358 377 0
-355 356 0
-355 357 0
355 -356 -357 0
299 -300 0
299 -355 0
-299 300 355 0
-381 302 0
381 -302 0
-388 282 0
388 -282 0
-389 114 0
389 -114 0
-387 388 0
-387 389 0
387 -388 -389 0
-391 287 0
391 -287 0
-392 122 0
392 -122 0
-390 391 0
-390 392 0
390 -391 -392 0
386 -387 0
386 -390 0
-386 387 390 0
-394 277 0
394 -277 0
-395 127 0
395 -127 0
-393 394 0
-393 395 0
393 -394 -395 0
385 -386 0
385 -393 0
-385 386 393 0
-397 274 0
397 -274 0
-398 117 0
398 -117 0
-396 397 0
-396 398 0
396 -397 -398 0
384 -385 0
384 -396 0
-384 385 396 0
-400 277 0
400 -277 0
-401 122 0
401 -122 0
-399 400 0
-399 401 0
399 -400 -401 0
383 -384 0
383 -399 0
-383 384 399 0
-403 266 0
403 -266 0
-404 114 0
404 -114 0
-402 403 0
-402 404 0
402 -403 -404 0
382 -383 0
382 -402 0
-382 383 402 0
-380 381 0
-380 382 0
380 -381 -382 0
298 -299 0
298 -380 0
-298 299 380 0
-406 302 0
406 -302 0
-413 282 0
413 -282 0
-414 146 0
414 -146 0
-412 413 0
-412 414 0
412 -413 -414 0
-416 287 0
416 -287 0
-417 154 0
417 -154 0
-415 416 0
-415 417 0
415 -416 -417 0
411 -412 0
411 -415 0
-411 412 415 0
-419 277 0
419 -277 0
-420 159 0
420 -159 0
-418 419 0
-418 420 0
418 -419 -420 0
410 -411 0
410 -418 0
-410 411 418 0
-422 274 0
422 -274 0
-423 149 0
423 -149 0
-421 422 0
-421 423 0
421 -422 -423 0
409 -410 0
409 -421 0
-409 410 421 0
-425 277 0
425 -277 0
-426 154 0
426 -154 0
-424 425 0
-424 426 0
424 -425 -426 0
408 -409 0
408 -424 0
-408 409 424 0
-428 266 0
428 -266 0
-429 146 0
429 -146 0
-427 428 0
-427 429 0
427 -428 -429 0
407 -408 0
407 -427 0
-407 408 427 0
-405 406 0
-405 407 0
405 -406 -407 0
297 -298 0
297 -405 0
-297 298 405 0
-431 302 0
431 -302 0
-438 282 0
438 -282 0
-439 178 0
439 -178 0
-437 438 0
-437 439 0
437 -438 -439 0
-441 287 0
441 -287 0
-442 186 0
442 -186 0
-440 441 0
-440 442 0
440 -441 -442 0
436 -437 0
436 -440 0
-436 437 440 0
-444 277 0
444 -277 0
-445 191 0
445 -191 0
-443 444 0
-443 445 0
443 -444 -445 0
435 -436 0
435 -443 0
-435 436 443 0
-447 274 0
447 -274 0
-448 181 0
448 -181 0
-446 447 0
-446 448 0
446 -447 -448 0
434 -435 0
434 -446 0
-434 435 446 0
-450 277 0
450 -277 0
-451 186 0
451 -186 0
-449 450 0
-449 451 0
449 -450 -451 0
433 -434 0
433 -449 0
-433 434 449 0
-453 266 0
453 -266 0
-454 178 0
454 -178 0
-452 453 0
-452 454 0
452 -453 -454 0
432 -433 0
432 -452 0
-432 433 452 0
-430 431 0
-430 432 0
430 -431 -432 0
296 -297 0
296 -430 0
-296 297 430 0
-456 302 0
456 -302 0
-463 282 0
463 -282 0
-464 210 0
464 -210 0
-462 463 0
-462 464 0
462 -463 -464 0
-466 287 0
466 -287 0
-467 218 0
467 -218 0
-465 466 0
-465 467 0
465 -466 -467 0
461 -462 0
461 -465 0
-461 462 465 0
-469 277 0
469 -277 0
-470 223 0
470 -223 0
-468 469 0
-468 470 0
468 -469 -470 0
460 -461 0
460 -468 0
-460 461 468 0
-472 274 0
472 -274 0
-473 213 0
473 -213 0
-471 472 0
-471 473 0
471 -472 -473 0
459 -460 0
459 -471 0
-459 460 471 0
-475 277 0
475 -277 0
-476 218 0
476 -218 0
-474 475 0
-474 476 0
474 -475 -476 0
458 -459 0
458 -474 0
-458 459 474 0
-478 266 0
478 -266 0
-479 210 0
479 -210 0
-477 478 0
-477 479 0
477 -478 -479 0
457 -458 0
457 -477 0
-457 458 477 0
-455 456 0
-455 457 0
455 -456 -457 0
295 -296 0
295 -455 0
-295 296 455 0
-481 302 0
481 -302 0
-488 282 0
488 -282 0
-489 242 0
489 -242 0
-487 488 0
-487 489 0
487 -488 -489 0
-491 287 0
491 -287 0
-492 250 0
492 -250 0
-490 491 0
-490 492 0
490 -491 -492 0
486 -487 0
486 -490 0
-486 487 490 0
-494 277 0
494 -277 0
-495 255 0
495 -255 0
-493 494 0
-493 495 0
493 -494 -495 0
485 -486 0
485 -493 0
-485 486 493 0
-497 274 0
497 -274 0
-498 245 0
498 -245 0
-496 497 0
-496 498 0
496 -497 -498 0
484 -485 0
484 -496 0
-484 485 496 0
-500 277 0
500 -277 0
-501 250 0
501 -250 0
-499 500 0
-499 501 0
499 -500 -501 0
483 -484 0
483 -499 0
-483 484 499 0
-503 266 0
503 -266 0
-504 242 0
504 -242 0
-502 503 0
-502 504 0
502 -503 -504 0
482 -483 0
482 -502 0
-482 483 502 0
-480 481 0
-480 482 0
480 -481 -482 0
294 -295 0
294 -480 0
-294 295 480 0
-506 302 0
506 -302 0
-513 282 0
513 -282 0
-514 274 0
514 -274 0
-512 513 0
-512 514 0
512 -513 -514 0
-516 287 0
516 -287 0
-517 282 0
517 -282 0
-515 516 0
-515 517 0
515 -516 -517 0
511 -512 0
511 -515 0
-511 512 515 0
-519 277 0
519 -277 0
-520 287 0
520 -287 0
-518 519 0
-518 520 0
518 -519 -520 0
510 -511 0
510 -518 0
-510 511 518 0
-522 274 0
522 -274 0
-523 277 0
523 -277 0
-521 522 0
-521 523 0
521 -522 -523 0
509 -510 0
509 -521 0
-509 510 521 0
-525 277 0
525 -277 0
-526 282 0
526 -282 0
-524 525 0
-524 526 0
524 -525 -526 0
508 -509 0
508 -524 0
-508 509 524 0
-528 266 0
528 -266 0
-529 274 0
529 -274 0
-527 528 0
-527 529 0
527 -528 -529 0
507 -508 0
507 -527 0
-507 508 527 0
-505 506 0
-505 507 0
505 -506 -507 0
293 -294 0
293 -505 0
-293 294 505 0
2 -3 0
2 -293 0
-2 3 293 0
-544 31 0
544 -31 0
-545 52 0
545 -52 0
-543 544 0
-543 545 0
543 -544 -545 0
-547 36 0
547 -36 0
-548 60 0
548 -60 0
-546 547 0
-546 548 0
546 -547 -548 0
542 -543 0
542 -546 0
-542 543 546 0
-550 26 0
550 -26 0
-551 65 0
551 -65 0
-549 550 0
-549 551 0
549 -550 -551 0
541 -542 0
541 -549 0
-541 542 549 0
-553 23 0
553 -23 0
-554 55 0
554 -55 0
-552 553 0
-552 554 0
552 -553 -554 0
540 -541 0
540 -552 0
-540 541 552 0
-556 26 0
556 -26 0
-557 60 0
557 -60 0
-555 556 0
-555 557 0
555 -556 -557 0
539 -540 0
539 -555 0
-539 540 555 0
-559 15 0
559 -15 0
-560 52 0
560 -52 0
-558 559 0
-558 560 0
558 -559 -560 0
538 -539 0
538 -558 0
-538 539 558 0
-567 60 0
567 -60 0
-568 82 0
568 -82 0
-566 567 0
-566 568 0
566 -567 -568 0
-570 65 0
570 -65 0
-571 90 0
571 -90 0
-569 570 0
-569 571 0
569 -570 -571 0
565 -566 0
565 -569 0
-565 566 569 0
-573 55 0
573 -55 0
-574 95 0
574 -95 0
-572 573 0
-572 574 0
572 -573 -574 0
564 -565 0
564 -572 0
-564 565 572 0
-576 52 0
576 -52 0
-577 85 0
577 -85 0
-575 576 0
-575 577 0
575 -576 -577 0
563 -564 0
563 -575 0
-563 564 575 0
-579 55 0
579 -55 0
-580 90 0
580 -90 0
-578 579 0
-578 580 0
578 -579 -580 0
562 -563 0
562 -578 0
-562 563 578 0
-582 44 0
582 -44 0
-583 82 0
583 -82 0
-581 582 0
-581 583 0
581 -582 -583 0
561 -562 0
561 -581 0
-561 562 581 0
-537 538 0
-537 561 0
537 -538 -561 0
-590 90 0
590 -90 0
-591 114 0
591 -114 0
-589 590 0
-589 591 0
589 -590 -591 0
-593 95 0
593 -95 0
-594 122 0
594 -122 0
-592 593 0
-592 594 0
592 -593 -594 0
588 -589 0
588 -592 0
-588 589 592 0
-596 85 0
596 -85 0
-597 127 0
597 -127 0
-595 596 0
-595 597 0
595 -596 -597 0
587 -588 0
587 -595 0
-587 588 595 0
-599 82 0
599 -82 0
-600 117 0
600 -117 0
-598 599 0
-598 600 0
598 -599 -600 0
586 -587 0
586 -598 0
-586 587 598 0
-602 85 0
602 -85 0
-603 122 0
603 -122 0
-601 602 0
-601 603 0
601 -602 -603 0
585 -586 0
585 -601 0
-585 586 601 0
-605 74 0
605 -74 0
-606 114 0
606 -114 0
-604 605 0
-604 606 0
604 -605 -606 0
584 -585 0
584 -604 0
-584 585 604 0
-536 537 0
-536 584 0
536 -537 -584 0
-613 122 0
613 -122 0
-614 146 0
614 -146 0
-612 613 0
-612 614 0
612 -613 -614 0
-616 127 0
616 -127 0
-617 154 0
617 -154 0
-615 616 0
-615 617 0
615 -616 -617 0
611 -612 0
611 -615 0
-611 612 615 0
-619 117 0
619 -117 0
-620 159 0
620 -159 0
-618 619 0
-618 620 0
618 -619 -620 0
610 -611 0
610 -618 0
-610 611 618 0
-622 114 0
622 -114 0
-623 149 0
623 -149 0
-621 622 0
-621 623 0
621 -622 -623 0
609 -610 0
609 -621 0
-609 610 621 0
-625 117 0
625 -117 0
-626 154 0
626 -154 0
-624 625 0
-624 626 0
624 -625 -626 0
608 -609 0
608 -624 0
-608 609 624 0
-628 106 0
628 -106 0
-629 146 0
629 -146 0
-627 628 0
-627 629 0
627 -628 -629 0
607 -608 0
607 -627 0
-607 608 627 0
-535 536 0
-535 607 0
535 -536 -607 0
-636 154 0
636 -154 0
-637 178 0
637 -178 0
-635 636 0
-635 637 0
635 -636 -637 0
-639 159 0
639 -159 0
-640 186 0
640 -186 0
-638 639 0
-638 640 0
638 -639 -640 0
634 -635 0
634 -638 0
-634 635 638 0
-642 149 0
642 -149 0
-643 191 0
643 -191 0
-641 642 0
-641 643 0
641 -642 -643 0
633 -634 0
633 -641 0
-633 634 641 0
-645 146 0
645 -146 0
-646 181 0
646 -181 0
-644 645 0
-644 646 0
644 -645 -646 0
632 -633 0
632 -644 0
-632 633 644 0
-648 149 0
648 -149 0
-649 186 0
649 -186 0
-647 648 0
-647 649 0
647 -648 -649 0
631 -632 0
631 -647 0
-631 632 647 0
-651 138 0
651 -138 0
-652 178 0
652 -178 0
-650 651 0
-650 652 0
650 -651 -652 0
630 -631 0
630 -650 0
-630 631 650 0
-534 535 0
-534 630 0
534 -535 -630 0
-659 186 0
659 -186 0
-660 210 0
660 -210 0
-658 659 0
-658 660 0
658 -659 -660 0
-662 191 0
662 -191 0
-663 218 0
663 -218 0
-661 662 0
-661 663 0
661 -662 -663 0
657 -658 0
657 -661 0
-657 658 661 0
-665 181 0
665 -181 0
-666 223 0
666 -223 0
-664 665 0
-664 666 0
664 -665 -666 0
656 -657 0
656 -664 0
-656 657 664 0
-668 178 0
668 -178 0
-669 213 0
669 -213 0
-667 668 0
-667 669 0
667 -668 -669 0
655 -656 0
655 -667 0
-655 656 667 0
-671 181 0
671 -181 0
-672 218 0
672 -218 0
-670 671 0
-670 672 0
670 -671 -672 0
654 -655 0
654 -670 0
-654 655 670 0
-674 170 0
674 -170 0
-675 210 0
675 -210 0
-673 674 0
-673 675 0
673 -674 -675 0
653 -654 0
653 -673 0
-653 654 673 0
-533 534 0
-533 653 0
533 -534 -653 0
-682 218 0
682 -218 0
-683 242 0
683 -242 0
-681 682 0
-681 683 0
681 -682 -683 0
-685 223 0
685 -223 0
-686 250 0
686 -250 0
-684 685 0
-684 686 0
684 -685 -686 0
680 -681 0
680 -684 0
-680 681 684 0
-688 213 0
688 -213 0
-689 255 0
689 -255 0
-687 688 0
-687 689 0
687 -688 -689 0
679 -680 0
679 -687 0
-679 680 687 0
-691 210 0
691 -210 0
-692 245 0
692 -245 0
-690 691 0
-690 692 0
690 -691 -692 0
678 -679 0
678 -690 0
-678 679 690 0
-694 213 0
694 -213 0
-695 250 0
695 -250 0
-693 694 0
-693 695 0
693 -694 -695 0
677 -678 0
677 -693 0
-677 678 693 0
-697 202 0
697 -202 0
-698 242 0
698 -242 0
-696 697 0
-696 698 0
696 -697 -698 0
676 -677 0
676 -696 0
-676 677 696 0
-532 533 0
-532 676 0
532 -533 -676 0
-705 250 0
705 -250 0
-706 274 0
706 -274 0
-704 705 0
-704 706 0
704 -705 -706 0
-708 255 0
708 -255 0
-709 282 0
709 -282 0
-707 708 0
-707 709 0
707 -708 -709 0
703 -704 0
703 -707 0
-703 704 707 0
-711 245 0
711 -245 0
-712 287 0
712 -287 0
-710 711 0
-710 712 0
710 -711 -712 0
702 -703 0
702 -710 0
-702 703 710 0
-714 242 0
714 -242 0
-715 277 0
715 -277 0
-713 714 0
-713 715 0
713 -714 -715 0
701 -702 0
701 -713 0
-701 702 713 0
-717 245 0
717 -245 0
-718 282 0
718 -282 0
-716 717 0
-716 718 0
716 -717 -718 0
700 -701 0
700 -716 0
-700 701 716 0
-720 234 0
720 -234 0
-721 274 0
721 -274 0
-719 720 0
-719 721 0
719 -720 -721 0
699 -700 0
699 -719 0
-699 700 719 0
-531 532 0
-531 699 0
531 -532 -699 0
-722 15 0
722 -15 0
-530 531 0
-530 722 0
530 -531 -722 0
-1 2 0
-1 530 0
1 -2 -530 0
